experiment/data/hgs-res/Vrp-Set-B-n57/Vrp-Set-B-n57-hgs/0.hgs1.vrp
NAME : 0
COMMENT : CVRP Instance
TYPE : CVRP
DIMENSION : 57
EDGE_WEIGHT_TYPE : EUC_2D
CAPACITY : 100
NODE_COORD_SECTION
1	11.0	83.0
2	37.0	61.0
3	77.0	81.0
4	35.0	21.0
5	1.0	93.0
6	21.0	39.0
7	63.0	7.0
8	97.0	95.0
9	3.0	7.0
10	5.0	3.0
11	36.0	22.0
12	64.0	10.0
13	6.0	8.0
14	24.0	40.0
15	86.0	82.0
16	68.0	14.0
17	28.0	46.0
18	10.0	8.0
19	8.0	14.0
20	10.0	10.0
21	104.0	104.0
22	38.0	24.0
23	80.0	82.0
24	22.0	46.0
25	26.0	40.0
26	4.0	10.0
27	10.0	12.0
28	26.0	44.0
29	4.0	10.0
30	4.0	98.0
31	78.0	82.0
32	64.0	8.0
33	98.0	98.0
34	24.0	40.0
35	10.0	8.0
36	8.0	96.0
37	8.0	8.0
38	84.0	90.0
39	8.0	8.0
40	86.0	86.0
41	6.0	94.0
42	10.0	10.0
43	80.0	82.0
44	102.0	96.0
45	36.0	26.0
46	44.0	28.0
47	22.0	46.0
48	100.0	100.0
49	28.0	42.0
50	30.0	40.0
51	78.0	84.0
52	10.0	4.0
53	78.0	84.0
54	6.0	8.0
55	10.0	94.0
56	40.0	66.0
57	10.0	16.0
DEMAND_SECTION
1	0
2	2
3	1
4	3
5	9
6	13
7	21
8	6
9	22
10	10
11	23
12	2
13	15
14	10
15	23
16	8
17	5
18	14
19	6
20	15
21	18
22	15
23	10
24	17
25	1
26	1
27	18
28	7
29	12
30	9
31	26
32	60
33	12
34	17
35	9
36	7
37	13
38	24
39	10
40	17
41	24
42	25
43	1
44	20
45	14
46	6
47	9
48	11
49	2
50	11
51	17
52	3
53	1
54	8
55	12
56	9
57	13
DEPOT_SECTION
1
-1
EOF
