experiment/data/hgs-res/Vrp-Set-B-n57/Vrp-Set-B-n57-hgs/0.hgs1.tour
Route #1: 25 28 8 9 51 38 36 53 12 18
Route #2: 56 26 19 41 17 34
Route #3: 46 23 33 13 5
Route #4: 16 48 49 44 21 10 3 24 27
Route #5: 45 6 31 11 15 1
Route #6: 2 30 22 42 14 39 50 52
Route #7: 32 47 20 43 7 37 55
Route #8: 54 35 40 29 4
Cost 1143.33
